c Generated map
c Size: 8 * 8, weights in range: 1 to 10, walls: True, with ratio 0.05
c dim 4 of 8
c
p sp 64 102
c graph contains 64 nodes and 102 arcs
c
a 1 9 9
a 9 1 9
a 1 2 1
a 2 1 1
a 2 10 5
a 10 2 5
a 4 12 10
a 12 4 10
a 4 5 10
a 5 4 10
a 5 13 9
a 13 5 9
a 5 6 9
a 6 5 9
a 6 14 6
a 14 6 6
a 6 7 10
a 7 6 10
a 7 15 1
a 15 7 1
a 7 8 8
a 8 7 8
a 8 16 2
a 16 8 2
a 9 17 4
a 17 9 4
a 9 10 2
a 10 9 2
a 10 18 6
a 18 10 6
a 10 11 7
a 11 10 7
a 11 19 2
a 19 11 2
a 11 12 7
a 12 11 7
a 12 20 10
a 20 12 10
a 12 13 1
a 13 12 1
a 13 21 2
a 21 13 2
a 13 14 4
a 14 13 4
a 14 22 5
a 22 14 5
a 14 15 5
a 15 14 5
a 15 23 8
a 23 15 8
a 15 16 9
a 16 15 9
a 16 24 4
a 24 16 4
a 17 18 10
a 18 17 10
a 18 26 10
a 26 18 10
a 18 19 4
a 19 18 4
a 19 27 5
a 27 19 5
a 19 20 4
a 20 19 4
a 20 28 6
a 28 20 6
a 20 21 6
a 21 20 6
a 21 29 2
a 29 21 2
a 21 22 3
a 22 21 3
a 22 30 10
a 30 22 10
a 22 23 1
a 23 22 1
a 23 24 10
a 24 23 10
a 24 32 5
a 32 24 5
a 26 34 10
a 34 26 10
a 26 27 3
a 27 26 3
a 27 35 6
a 35 27 6
a 27 28 2
a 28 27 2
a 28 36 3
a 36 28 3
a 28 29 5
a 29 28 5
a 29 37 6
a 37 29 6
a 29 30 9
a 30 29 9
a 30 38 3
a 38 30 3
a 32 40 1
a 40 32 1
a 33 41 9
a 41 33 9
a 33 34 2
a 34 33 2
a 34 42 4
a 42 34 4
a 34 35 9
a 35 34 9
a 35 43 6
a 43 35 6
a 35 36 3
a 36 35 3
a 36 44 5
a 44 36 5
a 36 37 4
a 37 36 4
a 37 45 9
a 45 37 9
a 37 38 6
a 38 37 6
a 38 46 7
a 46 38 7
a 38 39 4
a 39 38 4
a 39 47 1
a 47 39 1
a 39 40 5
a 40 39 5
a 40 48 10
a 48 40 10
a 41 49 8
a 49 41 8
a 41 42 6
a 42 41 6
a 42 50 6
a 50 42 6
a 42 43 3
a 43 42 3
a 43 51 10
a 51 43 10
a 43 44 6
a 44 43 6
a 44 52 2
a 52 44 2
a 44 45 10
a 45 44 10
a 45 53 4
a 53 45 4
a 45 46 9
a 46 45 9
a 46 54 7
a 54 46 7
a 46 47 2
a 47 46 2
a 47 55 9
a 55 47 9
a 47 48 8
a 48 47 8
a 48 56 10
a 56 48 10
a 49 57 10
a 57 49 10
a 49 50 8
a 50 49 8
a 50 58 1
a 58 50 1
a 50 51 2
a 51 50 2
a 51 59 5
a 59 51 5
a 51 52 7
a 52 51 7
a 52 60 8
a 60 52 8
a 52 53 10
a 53 52 10
a 53 61 5
a 61 53 5
a 53 54 3
a 54 53 3
a 54 62 10
a 62 54 10
a 54 55 7
a 55 54 7
a 55 63 1
a 63 55 1
a 55 56 10
a 56 55 10
a 56 64 3
a 64 56 3
a 57 58 1
a 58 57 1
a 58 59 6
a 59 58 6
a 59 60 8
a 60 59 8
a 60 61 5
a 61 60 5
a 61 62 4
a 62 61 4
a 62 63 4
a 63 62 4
a 63 64 7
a 64 63 7
